0 25 46 40 11 3 20 16 0 
0 34 24 58 23 47 14 0 
0 39 26 17 37 57 27 19 0 
0 6 28 44 49 30 53 21 4 0 
0 7 29 13 8 15 55 35 0 
0 50 43 56 12 51 9 32 0 
0 31 36 22 48 1 2 0 
0 42 45 5 54 10 0 
0 41 33 38 59 52 18 0 
